data;
    set P := 1 2 3 4 5 6 7;
    set M := A B C D E;

    param m :=
        A 4
        B 2
        C 3
        D 1
        E 1;

    param u:
          1 2 3 4 5 6 :=
        A 1 0 0 0 1 0
        B 0 0 0 1 1 0
        C 0 2 0 0 0 1
        D 0 0 1 0 0 0
        E 0 0 0 0 0 1;

    param p :=
        1 10
        2 6
        3 8
        4 4
        5 11
        6 9
        7 3;

    param t:
          A   B   C   D    E :=
        1 0.5 0.1 0.2 0.05 0
        2 0.7 0.2 0   0.03 0
        3 0   0   0.8 0    0.01
        4 0   0.3 0   0.07 0
        5 0.3 0   0   0.1  0.05
        6 0.2 0.6 0   0    0
        7 0.5 0   0.6 0.08 0.05;

    param d:
          1    2   3   4   5    6 :=
        1 500  600 300 200 0    500
        2 1000 500 600 300 100  500
        3 300  200 0   400 500  100
        4 300  0   0   500 100  300
        5 800  400 500 200 1000 1100
        6 200  300 400 0   300  500
        7 100  150 100 100 0    60;
end;
